50 1225
1 2 111
1 3 143
1 4 134
1 5 57
1 6 22
1 7 31
1 8 68
1 9 39
1 10 7
1 11 129
1 12 17
1 13 41
1 14 10
1 15 131
1 16 63
1 17 6
1 18 41
1 19 30
1 20 17
1 21 32
1 22 61
1 23 133
1 24 2
1 25 44
1 26 121
1 27 141
1 28 56
1 29 27
1 30 83
1 31 50
1 32 49
1 33 60
1 34 121
1 35 8
1 36 27
1 37 123
1 38 63
1 39 26
1 40 91
1 41 110
1 42 2
1 43 49
1 44 72
1 45 20
1 46 117
1 47 15
1 48 36
1 49 27
1 50 83
2 3 141
2 4 135
2 5 104
2 6 21
2 7 12
2 8 145
2 9 25
2 10 107
2 11 89
2 12 119
2 13 131
2 14 74
2 15 61
2 16 99
2 17 59
2 18 33
2 19 47
2 20 141
2 21 6
2 22 45
2 23 110
2 24 65
2 25 43
2 26 35
2 27 62
2 28 14
2 29 24
2 30 10
2 31 146
2 32 129
2 33 127
2 34 132
2 35 40
2 36 52
2 37 106
2 38 47
2 39 66
2 40 23
2 41 21
2 42 61
2 43 115
2 44 89
2 45 142
2 46 55
2 47 149
2 48 66
2 49 113
2 50 66
3 4 79
3 5 148
3 6 25
3 7 107
3 8 5
3 9 105
3 10 123
3 11 10
3 12 120
3 13 1
3 14 21
3 15 53
3 16 55
3 17 59
3 18 90
3 19 18
3 20 134
3 21 43
3 22 96
3 23 47
3 24 143
3 25 119
3 26 146
3 27 92
3 28 135
3 29 26
3 30 32
3 31 39
3 32 88
3 33 1
3 34 14
3 35 67
3 36 57
3 37 103
3 38 127
3 39 83
3 40 73
3 41 66
3 42 126
3 43 124
3 44 46
3 45 149
3 46 117
3 47 2
3 48 87
3 49 85
3 50 123
4 5 104
4 6 18
4 7 114
4 8 56
4 9 8
4 10 25
4 11 93
4 12 22
4 13 131
4 14 76
4 15 115
4 16 104
4 17 75
4 18 79
4 19 144
4 20 117
4 21 123
4 22 4
4 23 34
4 24 87
4 25 24
4 26 51
4 27 74
4 28 77
4 29 31
4 30 26
4 31 98
4 32 19
4 33 97
4 34 105
4 35 63
4 36 97
4 37 68
4 38 93
4 39 69
4 40 27
4 41 9
4 42 55
4 43 26
4 44 15
4 45 119
4 46 140
4 47 77
4 48 50
4 49 149
4 50 8
5 6 43
5 7 124
5 8 148
5 9 10
5 10 26
5 11 81
5 12 128
5 13 0
5 14 147
5 15 128
5 16 88
5 17 131
5 18 49
5 19 48
5 20 45
5 21 47
5 22 23
5 23 1
5 24 47
5 25 104
5 26 46
5 27 137
5 28 74
5 29 78
5 30 116
5 31 39
5 32 84
5 33 96
5 34 102
5 35 120
5 36 38
5 37 93
5 38 72
5 39 100
5 40 120
5 41 118
5 42 33
5 43 73
5 44 15
5 45 149
5 46 69
5 47 37
5 48 73
5 49 116
5 50 118
6 7 65
6 8 128
6 9 137
6 10 6
6 11 114
6 12 6
6 13 22
6 14 84
6 15 138
6 16 31
6 17 92
6 18 125
6 19 67
6 20 135
6 21 61
6 22 12
6 23 118
6 24 114
6 25 10
6 26 129
6 27 98
6 28 24
6 29 7
6 30 85
6 31 103
6 32 90
6 33 2
6 34 139
6 35 19
6 36 93
6 37 37
6 38 32
6 39 110
6 40 119
6 41 101
6 42 17
6 43 11
6 44 119
6 45 65
6 46 57
6 47 103
6 48 22
6 49 34
6 50 108
7 8 45
7 9 62
7 10 85
7 11 60
7 12 4
7 13 76
7 14 141
7 15 86
7 16 0
7 17 3
7 18 4
7 19 100
7 20 111
7 21 112
7 22 116
7 23 3
7 24 133
7 25 146
7 26 127
7 27 64
7 28 11
7 29 79
7 30 142
7 31 49
7 32 28
7 33 79
7 34 124
7 35 65
7 36 41
7 37 7
7 38 72
7 39 64
7 40 61
7 41 85
7 42 138
7 43 73
7 44 144
7 45 8
7 46 128
7 47 16
7 48 113
7 49 25
7 50 87
8 9 82
8 10 115
8 11 5
8 12 133
8 13 100
8 14 144
8 15 84
8 16 80
8 17 128
8 18 103
8 19 51
8 20 148
8 21 9
8 22 47
8 23 38
8 24 63
8 25 123
8 26 16
8 27 144
8 28 91
8 29 141
8 30 16
8 31 95
8 32 52
8 33 50
8 34 130
8 35 92
8 36 95
8 37 42
8 38 38
8 39 1
8 40 108
8 41 13
8 42 20
8 43 46
8 44 143
8 45 116
8 46 102
8 47 24
8 48 67
8 49 4
8 50 20
9 10 20
9 11 99
9 12 33
9 13 42
9 14 130
9 15 101
9 16 30
9 17 10
9 18 127
9 19 43
9 20 100
9 21 3
9 22 60
9 23 32
9 24 48
9 25 144
9 26 2
9 27 67
9 28 11
9 29 94
9 30 91
9 31 73
9 32 143
9 33 23
9 34 29
9 35 49
9 36 41
9 37 149
9 38 97
9 39 109
9 40 147
9 41 39
9 42 57
9 43 23
9 44 13
9 45 50
9 46 101
9 47 143
9 48 142
9 49 148
9 50 138
10 11 126
10 12 104
10 13 83
10 14 59
10 15 73
10 16 144
10 17 75
10 18 149
10 19 24
10 20 130
10 21 87
10 22 36
10 23 43
10 24 45
10 25 10
10 26 96
10 27 126
10 28 64
10 29 41
10 30 49
10 31 149
10 32 49
10 33 65
10 34 92
10 35 19
10 36 50
10 37 91
10 38 62
10 39 109
10 40 25
10 41 23
10 42 25
10 43 121
10 44 8
10 45 57
10 46 18
10 47 144
10 48 34
10 49 143
10 50 5
11 12 127
11 13 65
11 14 100
11 15 4
11 16 147
11 17 31
11 18 99
11 19 127
11 20 116
11 21 145
11 22 105
11 23 35
11 24 55
11 25 12
11 26 51
11 27 6
11 28 74
11 29 38
11 30 32
11 31 72
11 32 60
11 33 123
11 34 133
11 35 76
11 36 72
11 37 138
11 38 0
11 39 88
11 40 6
11 41 131
11 42 82
11 43 63
11 44 97
11 45 128
11 46 119
11 47 29
11 48 83
11 49 86
11 50 15
12 13 83
12 14 17
12 15 27
12 16 94
12 17 84
12 18 65
12 19 131
12 20 128
12 21 75
12 22 14
12 23 109
12 24 77
12 25 43
12 26 74
12 27 42
12 28 80
12 29 125
12 30 146
12 31 9
12 32 16
12 33 21
12 34 146
12 35 36
12 36 119
12 37 13
12 38 93
12 39 37
12 40 126
12 41 84
12 42 121
12 43 66
12 44 3
12 45 70
12 46 131
12 47 49
12 48 50
12 49 112
12 50 6
13 14 92
13 15 146
13 16 109
13 17 122
13 18 64
13 19 126
13 20 132
13 21 122
13 22 98
13 23 39
13 24 80
13 25 48
13 26 93
13 27 13
13 28 29
13 29 121
13 30 148
13 31 0
13 32 33
13 33 34
13 34 89
13 35 5
13 36 63
13 37 134
13 38 40
13 39 66
13 40 34
13 41 111
13 42 7
13 43 9
13 44 16
13 45 9
13 46 68
13 47 81
13 48 119
13 49 124
13 50 29
14 15 61
14 16 7
14 17 107
14 18 141
14 19 75
14 20 106
14 21 46
14 22 148
14 23 102
14 24 102
14 25 135
14 26 102
14 27 10
14 28 68
14 29 124
14 30 136
14 31 32
14 32 121
14 33 116
14 34 8
14 35 135
14 36 129
14 37 24
14 38 19
14 39 45
14 40 84
14 41 70
14 42 61
14 43 2
14 44 139
14 45 61
14 46 30
14 47 68
14 48 49
14 49 64
14 50 22
15 16 27
15 17 43
15 18 57
15 19 143
15 20 45
15 21 123
15 22 38
15 23 21
15 24 19
15 25 51
15 26 84
15 27 21
15 28 43
15 29 53
15 30 137
15 31 132
15 32 82
15 33 99
15 34 122
15 35 101
15 36 78
15 37 117
15 38 88
15 39 97
15 40 124
15 41 55
15 42 73
15 43 134
15 44 147
15 45 88
15 46 88
15 47 68
15 48 62
15 49 78
15 50 27
16 17 1
16 18 72
16 19 100
16 20 107
16 21 140
16 22 89
16 23 17
16 24 144
16 25 8
16 26 30
16 27 37
16 28 118
16 29 59
16 30 2
16 31 3
16 32 132
16 33 140
16 34 8
16 35 72
16 36 58
16 37 53
16 38 146
16 39 82
16 40 134
16 41 39
16 42 134
16 43 4
16 44 80
16 45 14
16 46 109
16 47 34
16 48 105
16 49 61
16 50 28
17 18 115
17 19 80
17 20 74
17 21 129
17 22 75
17 23 135
17 24 2
17 25 38
17 26 14
17 27 108
17 28 113
17 29 63
17 30 141
17 31 62
17 32 23
17 33 112
17 34 77
17 35 100
17 36 136
17 37 56
17 38 102
17 39 138
17 40 53
17 41 126
17 42 65
17 43 16
17 44 1
17 45 12
17 46 145
17 47 91
17 48 29
17 49 147
17 50 81
18 19 65
18 20 33
18 21 90
18 22 29
18 23 57
18 24 11
18 25 90
18 26 92
18 27 46
18 28 104
18 29 143
18 30 53
18 31 30
18 32 92
18 33 127
18 34 124
18 35 19
18 36 100
18 37 87
18 38 121
18 39 31
18 40 80
18 41 146
18 42 82
18 43 25
18 44 75
18 45 68
18 46 92
18 47 36
18 48 42
18 49 16
18 50 51
19 20 39
19 21 90
19 22 140
19 23 35
19 24 136
19 25 110
19 26 30
19 27 80
19 28 21
19 29 77
19 30 5
19 31 119
19 32 100
19 33 109
19 34 58
19 35 34
19 36 120
19 37 66
19 38 130
19 39 8
19 40 72
19 41 4
19 42 102
19 43 16
19 44 7
19 45 34
19 46 126
19 47 89
19 48 134
19 49 89
19 50 12
20 21 117
20 22 140
20 23 20
20 24 44
20 25 46
20 26 100
20 27 102
20 28 66
20 29 94
20 30 39
20 31 111
20 32 133
20 33 57
20 34 21
20 35 71
20 36 12
20 37 88
20 38 3
20 39 54
20 40 24
20 41 79
20 42 141
20 43 71
20 44 41
20 45 119
20 46 16
20 47 131
20 48 101
20 49 147
20 50 103
21 22 13
21 23 41
21 24 116
21 25 8
21 26 21
21 27 23
21 28 12
21 29 50
21 30 117
21 31 15
21 32 24
21 33 61
21 34 109
21 35 7
21 36 123
21 37 57
21 38 81
21 39 135
21 40 105
21 41 62
21 42 68
21 43 34
21 44 26
21 45 119
21 46 24
21 47 42
21 48 123
21 49 56
21 50 65
22 23 103
22 24 118
22 25 19
22 26 34
22 27 106
22 28 71
22 29 36
22 30 16
22 31 84
22 32 53
22 33 36
22 34 10
22 35 57
22 36 125
22 37 19
22 38 93
22 39 73
22 40 106
22 41 6
22 42 36
22 43 140
22 44 122
22 45 74
22 46 63
22 47 33
22 48 53
22 49 1
22 50 98
23 24 7
23 25 140
23 26 105
23 27 147
23 28 70
23 29 68
23 30 16
23 31 10
23 32 118
23 33 36
23 34 77
23 35 92
23 36 6
23 37 47
23 38 69
23 39 53
23 40 16
23 41 88
23 42 147
23 43 14
23 44 84
23 45 111
23 46 148
23 47 65
23 48 42
23 49 111
23 50 16
24 25 119
24 26 37
24 27 33
24 28 131
24 29 108
24 30 145
24 31 53
24 32 82
24 33 61
24 34 118
24 35 56
24 36 106
24 37 143
24 38 92
24 39 118
24 40 143
24 41 88
24 42 36
24 43 132
24 44 118
24 45 14
24 46 134
24 47 142
24 48 70
24 49 110
24 50 103
25 26 63
25 27 28
25 28 76
25 29 88
25 30 110
25 31 15
25 32 74
25 33 2
25 34 129
25 35 26
25 36 4
25 37 71
25 38 108
25 39 123
25 40 39
25 41 99
25 42 89
25 43 126
25 44 105
25 45 123
25 46 20
25 47 16
25 48 67
25 49 62
25 50 58
26 27 56
26 28 101
26 29 9
26 30 47
26 31 18
26 32 18
26 33 19
26 34 125
26 35 63
26 36 96
26 37 147
26 38 115
26 39 59
26 40 90
26 41 27
26 42 67
26 43 79
26 44 98
26 45 71
26 46 68
26 47 27
26 48 32
26 49 105
26 50 30
27 28 46
27 29 135
27 30 106
27 31 109
27 32 102
27 33 46
27 34 69
27 35 21
27 36 107
27 37 9
27 38 145
27 39 23
27 40 1
27 41 106
27 42 84
27 43 67
27 44 92
27 45 26
27 46 76
27 47 53
27 48 49
27 49 26
27 50 131
28 29 90
28 30 129
28 31 46
28 32 41
28 33 103
28 34 60
28 35 39
28 36 146
28 37 20
28 38 79
28 39 20
28 40 73
28 41 69
28 42 140
28 43 56
28 44 72
28 45 69
28 46 95
28 47 109
28 48 123
28 49 63
28 50 130
29 30 97
29 31 144
29 32 25
29 33 2
29 34 16
29 35 50
29 36 8
29 37 132
29 38 97
29 39 103
29 40 96
29 41 126
29 42 145
29 43 41
29 44 29
29 45 71
29 46 9
29 47 45
29 48 24
29 49 137
29 50 23
30 31 90
30 32 77
30 33 141
30 34 137
30 35 148
30 36 3
30 37 109
30 38 126
30 39 138
30 40 121
30 41 15
30 42 81
30 43 10
30 44 77
30 45 76
30 46 3
30 47 44
30 48 36
30 49 49
30 50 2
31 32 127
31 33 79
31 34 102
31 35 87
31 36 103
31 37 33
31 38 4
31 39 89
31 40 142
31 41 48
31 42 37
31 43 55
31 44 133
31 45 46
31 46 57
31 47 100
31 48 50
31 49 117
31 50 127
32 33 64
32 34 22
32 35 139
32 36 135
32 37 33
32 38 143
32 39 14
32 40 38
32 41 116
32 42 5
32 43 88
32 44 71
32 45 149
32 46 126
32 47 26
32 48 14
32 49 20
32 50 123
33 34 105
33 35 72
33 36 45
33 37 48
33 38 1
33 39 111
33 40 87
33 41 23
33 42 147
33 43 56
33 44 16
33 45 12
33 46 32
33 47 73
33 48 90
33 49 9
33 50 19
34 35 4
34 36 82
34 37 10
34 38 76
34 39 118
34 40 94
34 41 116
34 42 99
34 43 49
34 44 2
34 45 133
34 46 114
34 47 15
34 48 39
34 49 81
34 50 2
35 36 40
35 37 8
35 38 47
35 39 60
35 40 37
35 41 30
35 42 135
35 43 134
35 44 93
35 45 88
35 46 126
35 47 8
35 48 14
35 49 123
35 50 95
36 37 67
36 38 64
36 39 87
36 40 1
36 41 13
36 42 60
36 43 17
36 44 77
36 45 91
36 46 139
36 47 149
36 48 128
36 49 61
36 50 35
37 38 43
37 39 83
37 40 42
37 41 63
37 42 56
37 43 8
37 44 76
37 45 23
37 46 93
37 47 46
37 48 17
37 49 5
37 50 80
38 39 147
38 40 78
38 41 14
38 42 107
38 43 115
38 44 46
38 45 142
38 46 142
38 47 96
38 48 12
38 49 147
38 50 83
39 40 126
39 41 125
39 42 120
39 43 28
39 44 65
39 45 11
39 46 11
39 47 48
39 48 112
39 49 23
39 50 26
40 41 99
40 42 97
40 43 136
40 44 118
40 45 50
40 46 124
40 47 19
40 48 137
40 49 53
40 50 122
41 42 58
41 43 124
41 44 73
41 45 5
41 46 45
41 47 111
41 48 78
41 49 59
41 50 29
42 43 92
42 44 14
42 45 89
42 46 55
42 47 54
42 48 146
42 49 52
42 50 129
43 44 140
43 45 128
43 46 134
43 47 75
43 48 106
43 49 142
43 50 129
44 45 2
44 46 91
44 47 31
44 48 93
44 49 70
44 50 148
45 46 19
45 47 145
45 48 116
45 49 40
45 50 40
46 47 29
46 48 69
46 49 60
46 50 130
47 48 115
47 49 66
47 50 57
48 49 125
48 50 125
49 50 76
